GLPSOL: GLPK LP/MIP Solver, v4.65
Parameter(s) specified in the command line:
 --model solver_drone.mod --data solver_drone_data_40.dat --output solver_drone_solution_40_9.log
 --log solver_drone_cmd_output_40_9.log --tmlim 65
Reading model section from solver_drone.mod...
41 lines were read
Reading data section from solver_drone_data_40.dat...
117 lines were read
Generating f...
Generating package_deliverd_once...
Generating package_well_delivered...
Generating time_spent_flying...
Generating autonomy_not_exceeded...
Generating check_time_max...
Model has been successfully generated
GLPK Integer Optimizer, v4.65
24134 rows, 23995 columns, 72568 non-zeros
23995 integer variables, 23985 of which are binary
Preprocessing...
148 rows, 23995 columns, 48582 non-zeros
23995 integer variables, 23985 of which are binary
Scaling...
 A: min|aij| =  1.000e+00  max|aij| =  2.856e+03  ratio =  2.856e+03
GM: min|aij| =  4.785e-01  max|aij| =  2.090e+00  ratio =  4.367e+00
EQ: min|aij| =  2.290e-01  max|aij| =  1.000e+00  ratio =  4.367e+00
2N: min|aij| =  1.250e-01  max|aij| =  1.199e+00  ratio =  9.594e+00
Constructing initial basis...
Size of triangular part is 148
Solving LP relaxation...
GLPK Simplex Optimizer, v4.65
148 rows, 23995 columns, 48582 non-zeros
      0: obj =   0.000000000e+00 inf =   2.390e+03 (1)
    231: obj =   8.497777778e+03 inf =   1.332e-15 (0) 2
*   233: obj =   8.497777778e+03 inf =   1.332e-15 (0)
OPTIMAL LP SOLUTION FOUND
Integer optimization begins...
Long-step dual simplex will be used
+   233: mip =     not found yet >=              -inf        (1; 0)
+  5045: >>>>>   9.912000000e+03 >=   8.498000000e+03  14.3% (212; 0)
+  8516: >>>>>   9.208000000e+03 >=   8.498000000e+03   7.7% (242; 205)
+ 10890: >>>>>   9.080000000e+03 >=   8.498000000e+03   6.4% (248; 351)
+ 12561: >>>>>   8.992000000e+03 >=   8.498000000e+03   5.5% (282; 427)
+ 14486: >>>>>   8.912000000e+03 >=   8.498000000e+03   4.6% (348; 439)
+ 16654: >>>>>   8.776000000e+03 >=   8.498000000e+03   3.2% (204; 888)
+ 18082: >>>>>   8.736000000e+03 >=   8.498000000e+03   2.7% (219; 956)
+ 20594: >>>>>   8.712000000e+03 >=   8.498000000e+03   2.5% (285; 1000)
+ 23515: >>>>>   8.704000000e+03 >=   8.498000000e+03   2.4% (375; 1018)
+ 27524: >>>>>   8.640000000e+03 >=   8.498000000e+03   1.6% (529; 1024)
+ 29752: >>>>>   8.600000000e+03 >=   8.498000000e+03   1.2% (522; 1172)
+ 31098: >>>>>   8.592000000e+03 >=   8.498000000e+03   1.1% (554; 1228)
+ 36744: mip =   8.592000000e+03 >=   8.498000000e+03   1.1% (780; 1235)
+ 40021: >>>>>   8.584000000e+03 >=   8.498000000e+03   1.0% (980; 1239)
+ 46428: mip =   8.584000000e+03 >=   8.498000000e+03   1.0% (1114; 1432)
+ 51106: mip =   8.584000000e+03 >=   8.498000000e+03   1.0% (1349; 1440)
+ 56270: mip =   8.584000000e+03 >=   8.498000000e+03   1.0% (1591; 1449)
+ 56528: >>>>>   8.552000000e+03 >=   8.498000000e+03   0.6% (1614; 1449)
+ 62231: mip =   8.552000000e+03 >=   8.498000000e+03   0.6% (1577; 1882)
Time used: 60.0 secs.  Memory used: 60.6 Mb.
+ 67515: mip =   8.552000000e+03 >=   8.498000000e+03   0.6% (1798; 1894)
+ 71896: mip =   8.552000000e+03 >=   8.498000000e+03   0.6% (2017; 1908)
TIME LIMIT EXCEEDED; SEARCH TERMINATED
Time used:   65.2 secs
Memory used: 65.5 Mb (68674338 bytes)
The package 1 is delivered by the drone 3 to the house 1
The package 2 is delivered by the drone 1 to the house 1
The package 3 is delivered by the drone 9 to the house 2
The package 4 is delivered by the drone 4 to the house 2
The package 5 is delivered by the drone 5 to the house 4
The package 6 is delivered by the drone 8 to the house 4
The package 7 is delivered by the drone 2 to the house 4
The package 8 is delivered by the drone 7 to the house 7
The package 9 is delivered by the drone 5 to the house 7
The package 10 is delivered by the drone 1 to the house 8
The package 11 is delivered by the drone 3 to the house 8
The package 12 is delivered by the drone 9 to the house 8
The package 13 is delivered by the drone 5 to the house 9
The package 14 is delivered by the drone 2 to the house 9
The package 15 is delivered by the drone 3 to the house 10
The package 16 is delivered by the drone 8 to the house 10
The package 17 is delivered by the drone 1 to the house 10
The package 18 is delivered by the drone 6 to the house 12
The package 19 is delivered by the drone 8 to the house 12
The package 20 is delivered by the drone 7 to the house 12
The package 21 is delivered by the drone 6 to the house 13
The package 22 is delivered by the drone 6 to the house 13
The package 23 is delivered by the drone 4 to the house 13
The package 24 is delivered by the drone 9 to the house 15
The package 25 is delivered by the drone 9 to the house 16
The package 26 is delivered by the drone 9 to the house 16
The package 27 is delivered by the drone 4 to the house 17
The package 28 is delivered by the drone 9 to the house 18
The package 29 is delivered by the drone 8 to the house 19
The package 30 is delivered by the drone 8 to the house 19
The package 31 is delivered by the drone 8 to the house 19
The package 32 is delivered by the drone 9 to the house 20
The package 33 is delivered by the drone 2 to the house 21
The package 34 is delivered by the drone 9 to the house 22
The package 35 is delivered by the drone 2 to the house 23
The package 36 is delivered by the drone 8 to the house 23
The package 37 is delivered by the drone 3 to the house 23
The package 38 is delivered by the drone 2 to the house 24
The package 39 is delivered by the drone 4 to the house 24
The package 40 is delivered by the drone 2 to the house 24
The package 41 is delivered by the drone 4 to the house 27
The package 42 is delivered by the drone 4 to the house 27
The package 43 is delivered by the drone 9 to the house 28
The package 44 is delivered by the drone 3 to the house 28
The package 45 is delivered by the drone 1 to the house 28
The package 46 is delivered by the drone 2 to the house 29
The package 47 is delivered by the drone 7 to the house 29
The package 48 is delivered by the drone 2 to the house 29
The package 49 is delivered by the drone 5 to the house 30
The package 50 is delivered by the drone 6 to the house 30
The package 51 is delivered by the drone 6 to the house 32
The package 52 is delivered by the drone 5 to the house 32
The package 53 is delivered by the drone 6 to the house 32
The package 54 is delivered by the drone 7 to the house 33
The package 55 is delivered by the drone 3 to the house 33
The package 56 is delivered by the drone 9 to the house 33
The package 57 is delivered by the drone 7 to the house 34
The package 58 is delivered by the drone 7 to the house 34
The package 59 is delivered by the drone 3 to the house 35
The package 60 is delivered by the drone 4 to the house 35
The package 61 is delivered by the drone 8 to the house 37
The package 62 is delivered by the drone 1 to the house 37
The package 63 is delivered by the drone 1 to the house 38
The package 64 is delivered by the drone 5 to the house 38
The package 65 is delivered by the drone 6 to the house 38
Model has been successfully processed
Writing MIP solution to 'solver_drone_solution_40_9.log'...
